(set-info :smt-lib-version 2.6)
(set-logic QF_SLIA)
(set-info :source |
Generated by: Wei-Cheng Wu
Generated on: 2019-07-28
Generator: Py-Conbyte
Application: Concolic execution of Python code
Target solver: CVC4, Z3, Z3str3, Z3-Trau
|)
(set-info :license "https://creativecommons.org/licenses/by/4.0/")
(set-info :category "industrial")
(set-info :status unknown)
(declare-fun data () String)


(assert ( not ( or ( or ( or ( or ( or ( or ( or ( or ( or ( or ( or ( or ( or ( or ( or ( or ( or ( or ( or ( or ( or ( or ( or ( = "jan" "aaaaq"  ) ( = "feb" "aaaaq"  )  ) ( = "mar" "aaaaq"  )  ) ( = "apr" "aaaaq"  )  ) ( = "may" "aaaaq"  )  ) ( = "jun" "aaaaq"  )  ) ( = "jul" "aaaaq"  )  ) ( = "aug" "aaaaq"  )  ) ( = "sep" "aaaaq"  )  ) ( = "oct" "aaaaq"  )  ) ( = "nov" "aaaaq"  )  ) ( = "dec" "aaaaq"  )  ) ( = "january" "aaaaq"  )  ) ( = "february" "aaaaq"  )  ) ( = "march" "aaaaq"  )  ) ( = "april" "aaaaq"  )  ) ( = "may" "aaaaq"  )  ) ( = "june" "aaaaq"  )  ) ( = "july" "aaaaq"  )  ) ( = "august" "aaaaq"  )  ) ( = "september" "aaaaq"  )  ) ( = "october" "aaaaq"  )  ) ( = "november" "aaaaq"  )  ) ( = "december" "aaaaq"  )  )  ))

(assert (not ( < 5 5  )))

(assert (not ( > ( str.indexof ( str.substr ( str.substr ( str.substr ( str.substr data ( + ( str.indexof data " " 0  ) 1  ) ( - ( str.len data  ) ( + ( str.indexof data " " 0  ) 1  )  )  ) ( + ( str.indexof ( str.substr data ( + ( str.indexof data " " 0  ) 1  ) ( - ( str.len data  ) ( + ( str.indexof data " " 0  ) 1  )  )  ) " " 0  ) 1  ) ( - ( str.len ( str.substr data ( + ( str.indexof data " " 0  ) 1  ) ( - ( str.len data  ) ( + ( str.indexof data " " 0  ) 1  )  )  )  ) ( + ( str.indexof ( str.substr data ( + ( str.indexof data " " 0  ) 1  ) ( - ( str.len data  ) ( + ( str.indexof data " " 0  ) 1  )  )  ) " " 0  ) 1  )  )  ) ( + ( str.indexof ( str.substr ( str.substr data ( + ( str.indexof data " " 0  ) 1  ) ( - ( str.len data  ) ( + ( str.indexof data " " 0  ) 1  )  )  ) ( + ( str.indexof ( str.substr data ( + ( str.indexof data " " 0  ) 1  ) ( - ( str.len data  ) ( + ( str.indexof data " " 0  ) 1  )  )  ) " " 0  ) 1  ) ( - ( str.len ( str.substr data ( + ( str.indexof data " " 0  ) 1  ) ( - ( str.len data  ) ( + ( str.indexof data " " 0  ) 1  )  )  )  ) ( + ( str.indexof ( str.substr data ( + ( str.indexof data " " 0  ) 1  ) ( - ( str.len data  ) ( + ( str.indexof data " " 0  ) 1  )  )  ) " " 0  ) 1  )  )  ) " " 0  ) 1  ) ( - ( str.len ( str.substr ( str.substr data ( + ( str.indexof data " " 0  ) 1  ) ( - ( str.len data  ) ( + ( str.indexof data " " 0  ) 1  )  )  ) ( + ( str.indexof ( str.substr data ( + ( str.indexof data " " 0  ) 1  ) ( - ( str.len data  ) ( + ( str.indexof data " " 0  ) 1  )  )  ) " " 0  ) 1  ) ( - ( str.len ( str.substr data ( + ( str.indexof data " " 0  ) 1  ) ( - ( str.len data  ) ( + ( str.indexof data " " 0  ) 1  )  )  )  ) ( + ( str.indexof ( str.substr data ( + ( str.indexof data " " 0  ) 1  ) ( - ( str.len data  ) ( + ( str.indexof data " " 0  ) 1  )  )  ) " " 0  ) 1  )  )  )  ) ( + ( str.indexof ( str.substr ( str.substr data ( + ( str.indexof data " " 0  ) 1  ) ( - ( str.len data  ) ( + ( str.indexof data " " 0  ) 1  )  )  ) ( + ( str.indexof ( str.substr data ( + ( str.indexof data " " 0  ) 1  ) ( - ( str.len data  ) ( + ( str.indexof data " " 0  ) 1  )  )  ) " " 0  ) 1  ) ( - ( str.len ( str.substr data ( + ( str.indexof data " " 0  ) 1  ) ( - ( str.len data  ) ( + ( str.indexof data " " 0  ) 1  )  )  )  ) ( + ( str.indexof ( str.substr data ( + ( str.indexof data " " 0  ) 1  ) ( - ( str.len data  ) ( + ( str.indexof data " " 0  ) 1  )  )  ) " " 0  ) 1  )  )  ) " " 0  ) 1  )  )  ) ( + ( str.indexof ( str.substr ( str.substr ( str.substr data ( + ( str.indexof data " " 0  ) 1  ) ( - ( str.len data  ) ( + ( str.indexof data " " 0  ) 1  )  )  ) ( + ( str.indexof ( str.substr data ( + ( str.indexof data " " 0  ) 1  ) ( - ( str.len data  ) ( + ( str.indexof data " " 0  ) 1  )  )  ) " " 0  ) 1  ) ( - ( str.len ( str.substr data ( + ( str.indexof data " " 0  ) 1  ) ( - ( str.len data  ) ( + ( str.indexof data " " 0  ) 1  )  )  )  ) ( + ( str.indexof ( str.substr data ( + ( str.indexof data " " 0  ) 1  ) ( - ( str.len data  ) ( + ( str.indexof data " " 0  ) 1  )  )  ) " " 0  ) 1  )  )  ) ( + ( str.indexof ( str.substr ( str.substr data ( + ( str.indexof data " " 0  ) 1  ) ( - ( str.len data  ) ( + ( str.indexof data " " 0  ) 1  )  )  ) ( + ( str.indexof ( str.substr data ( + ( str.indexof data " " 0  ) 1  ) ( - ( str.len data  ) ( + ( str.indexof data " " 0  ) 1  )  )  ) " " 0  ) 1  ) ( - ( str.len ( str.substr data ( + ( str.indexof data " " 0  ) 1  ) ( - ( str.len data  ) ( + ( str.indexof data " " 0  ) 1  )  )  )  ) ( + ( str.indexof ( str.substr data ( + ( str.indexof data " " 0  ) 1  ) ( - ( str.len data  ) ( + ( str.indexof data " " 0  ) 1  )  )  ) " " 0  ) 1  )  )  ) " " 0  ) 1  ) ( - ( str.len ( str.substr ( str.substr data ( + ( str.indexof data " " 0  ) 1  ) ( - ( str.len data  ) ( + ( str.indexof data " " 0  ) 1  )  )  ) ( + ( str.indexof ( str.substr data ( + ( str.indexof data " " 0  ) 1  ) ( - ( str.len data  ) ( + ( str.indexof data " " 0  ) 1  )  )  ) " " 0  ) 1  ) ( - ( str.len ( str.substr data ( + ( str.indexof data " " 0  ) 1  ) ( - ( str.len data  ) ( + ( str.indexof data " " 0  ) 1  )  )  )  ) ( + ( str.indexof ( str.substr data ( + ( str.indexof data " " 0  ) 1  ) ( - ( str.len data  ) ( + ( str.indexof data " " 0  ) 1  )  )  ) " " 0  ) 1  )  )  )  ) ( + ( str.indexof ( str.substr ( str.substr data ( + ( str.indexof data " " 0  ) 1  ) ( - ( str.len data  ) ( + ( str.indexof data " " 0  ) 1  )  )  ) ( + ( str.indexof ( str.substr data ( + ( str.indexof data " " 0  ) 1  ) ( - ( str.len data  ) ( + ( str.indexof data " " 0  ) 1  )  )  ) " " 0  ) 1  ) ( - ( str.len ( str.substr data ( + ( str.indexof data " " 0  ) 1  ) ( - ( str.len data  ) ( + ( str.indexof data " " 0  ) 1  )  )  )  ) ( + ( str.indexof ( str.substr data ( + ( str.indexof data " " 0  ) 1  ) ( - ( str.len data  ) ( + ( str.indexof data " " 0  ) 1  )  )  ) " " 0  ) 1  )  )  ) " " 0  ) 1  )  )  ) " " 0  ) 1  ) ( - ( str.len ( str.substr ( str.substr ( str.substr data ( + ( str.indexof data " " 0  ) 1  ) ( - ( str.len data  ) ( + ( str.indexof data " " 0  ) 1  )  )  ) ( + ( str.indexof ( str.substr data ( + ( str.indexof data " " 0  ) 1  ) ( - ( str.len data  ) ( + ( str.indexof data " " 0  ) 1  )  )  ) " " 0  ) 1  ) ( - ( str.len ( str.substr data ( + ( str.indexof data " " 0  ) 1  ) ( - ( str.len data  ) ( + ( str.indexof data " " 0  ) 1  )  )  )  ) ( + ( str.indexof ( str.substr data ( + ( str.indexof data " " 0  ) 1  ) ( - ( str.len data  ) ( + ( str.indexof data " " 0  ) 1  )  )  ) " " 0  ) 1  )  )  ) ( + ( str.indexof ( str.substr ( str.substr data ( + ( str.indexof data " " 0  ) 1  ) ( - ( str.len data  ) ( + ( str.indexof data " " 0  ) 1  )  )  ) ( + ( str.indexof ( str.substr data ( + ( str.indexof data " " 0  ) 1  ) ( - ( str.len data  ) ( + ( str.indexof data " " 0  ) 1  )  )  ) " " 0  ) 1  ) ( - ( str.len ( str.substr data ( + ( str.indexof data " " 0  ) 1  ) ( - ( str.len data  ) ( + ( str.indexof data " " 0  ) 1  )  )  )  ) ( + ( str.indexof ( str.substr data ( + ( str.indexof data " " 0  ) 1  ) ( - ( str.len data  ) ( + ( str.indexof data " " 0  ) 1  )  )  ) " " 0  ) 1  )  )  ) " " 0  ) 1  ) ( - ( str.len ( str.substr ( str.substr data ( + ( str.indexof data " " 0  ) 1  ) ( - ( str.len data  ) ( + ( str.indexof data " " 0  ) 1  )  )  ) ( + ( str.indexof ( str.substr data ( + ( str.indexof data " " 0  ) 1  ) ( - ( str.len data  ) ( + ( str.indexof data " " 0  ) 1  )  )  ) " " 0  ) 1  ) ( - ( str.len ( str.substr data ( + ( str.indexof data " " 0  ) 1  ) ( - ( str.len data  ) ( + ( str.indexof data " " 0  ) 1  )  )  )  ) ( + ( str.indexof ( str.substr data ( + ( str.indexof data " " 0  ) 1  ) ( - ( str.len data  ) ( + ( str.indexof data " " 0  ) 1  )  )  ) " " 0  ) 1  )  )  )  ) ( + ( str.indexof ( str.substr ( str.substr data ( + ( str.indexof data " " 0  ) 1  ) ( - ( str.len data  ) ( + ( str.indexof data " " 0  ) 1  )  )  ) ( + ( str.indexof ( str.substr data ( + ( str.indexof data " " 0  ) 1  ) ( - ( str.len data  ) ( + ( str.indexof data " " 0  ) 1  )  )  ) " " 0  ) 1  ) ( - ( str.len ( str.substr data ( + ( str.indexof data " " 0  ) 1  ) ( - ( str.len data  ) ( + ( str.indexof data " " 0  ) 1  )  )  )  ) ( + ( str.indexof ( str.substr data ( + ( str.indexof data " " 0  ) 1  ) ( - ( str.len data  ) ( + ( str.indexof data " " 0  ) 1  )  )  ) " " 0  ) 1  )  )  ) " " 0  ) 1  )  )  )  ) ( + ( str.indexof ( str.substr ( str.substr ( str.substr data ( + ( str.indexof data " " 0  ) 1  ) ( - ( str.len data  ) ( + ( str.indexof data " " 0  ) 1  )  )  ) ( + ( str.indexof ( str.substr data ( + ( str.indexof data " " 0  ) 1  ) ( - ( str.len data  ) ( + ( str.indexof data " " 0  ) 1  )  )  ) " " 0  ) 1  ) ( - ( str.len ( str.substr data ( + ( str.indexof data " " 0  ) 1  ) ( - ( str.len data  ) ( + ( str.indexof data " " 0  ) 1  )  )  )  ) ( + ( str.indexof ( str.substr data ( + ( str.indexof data " " 0  ) 1  ) ( - ( str.len data  ) ( + ( str.indexof data " " 0  ) 1  )  )  ) " " 0  ) 1  )  )  ) ( + ( str.indexof ( str.substr ( str.substr data ( + ( str.indexof data " " 0  ) 1  ) ( - ( str.len data  ) ( + ( str.indexof data " " 0  ) 1  )  )  ) ( + ( str.indexof ( str.substr data ( + ( str.indexof data " " 0  ) 1  ) ( - ( str.len data  ) ( + ( str.indexof data " " 0  ) 1  )  )  ) " " 0  ) 1  ) ( - ( str.len ( str.substr data ( + ( str.indexof data " " 0  ) 1  ) ( - ( str.len data  ) ( + ( str.indexof data " " 0  ) 1  )  )  )  ) ( + ( str.indexof ( str.substr data ( + ( str.indexof data " " 0  ) 1  ) ( - ( str.len data  ) ( + ( str.indexof data " " 0  ) 1  )  )  ) " " 0  ) 1  )  )  ) " " 0  ) 1  ) ( - ( str.len ( str.substr ( str.substr data ( + ( str.indexof data " " 0  ) 1  ) ( - ( str.len data  ) ( + ( str.indexof data " " 0  ) 1  )  )  ) ( + ( str.indexof ( str.substr data ( + ( str.indexof data " " 0  ) 1  ) ( - ( str.len data  ) ( + ( str.indexof data " " 0  ) 1  )  )  ) " " 0  ) 1  ) ( - ( str.len ( str.substr data ( + ( str.indexof data " " 0  ) 1  ) ( - ( str.len data  ) ( + ( str.indexof data " " 0  ) 1  )  )  )  ) ( + ( str.indexof ( str.substr data ( + ( str.indexof data " " 0  ) 1  ) ( - ( str.len data  ) ( + ( str.indexof data " " 0  ) 1  )  )  ) " " 0  ) 1  )  )  )  ) ( + ( str.indexof ( str.substr ( str.substr data ( + ( str.indexof data " " 0  ) 1  ) ( - ( str.len data  ) ( + ( str.indexof data " " 0  ) 1  )  )  ) ( + ( str.indexof ( str.substr data ( + ( str.indexof data " " 0  ) 1  ) ( - ( str.len data  ) ( + ( str.indexof data " " 0  ) 1  )  )  ) " " 0  ) 1  ) ( - ( str.len ( str.substr data ( + ( str.indexof data " " 0  ) 1  ) ( - ( str.len data  ) ( + ( str.indexof data " " 0  ) 1  )  )  )  ) ( + ( str.indexof ( str.substr data ( + ( str.indexof data " " 0  ) 1  ) ( - ( str.len data  ) ( + ( str.indexof data " " 0  ) 1  )  )  ) " " 0  ) 1  )  )  ) " " 0  ) 1  )  )  ) " " 0  ) 1  )  )  ) "-" 0  ) 0  )))

(assert ( = ( str.indexof ( str.substr ( str.substr ( str.substr ( str.substr data ( + ( str.indexof data " " 0  ) 1  ) ( - ( str.len data  ) ( + ( str.indexof data " " 0  ) 1  )  )  ) ( + ( str.indexof ( str.substr data ( + ( str.indexof data " " 0  ) 1  ) ( - ( str.len data  ) ( + ( str.indexof data " " 0  ) 1  )  )  ) " " 0  ) 1  ) ( - ( str.len ( str.substr data ( + ( str.indexof data " " 0  ) 1  ) ( - ( str.len data  ) ( + ( str.indexof data " " 0  ) 1  )  )  )  ) ( + ( str.indexof ( str.substr data ( + ( str.indexof data " " 0  ) 1  ) ( - ( str.len data  ) ( + ( str.indexof data " " 0  ) 1  )  )  ) " " 0  ) 1  )  )  ) ( + ( str.indexof ( str.substr ( str.substr data ( + ( str.indexof data " " 0  ) 1  ) ( - ( str.len data  ) ( + ( str.indexof data " " 0  ) 1  )  )  ) ( + ( str.indexof ( str.substr data ( + ( str.indexof data " " 0  ) 1  ) ( - ( str.len data  ) ( + ( str.indexof data " " 0  ) 1  )  )  ) " " 0  ) 1  ) ( - ( str.len ( str.substr data ( + ( str.indexof data " " 0  ) 1  ) ( - ( str.len data  ) ( + ( str.indexof data " " 0  ) 1  )  )  )  ) ( + ( str.indexof ( str.substr data ( + ( str.indexof data " " 0  ) 1  ) ( - ( str.len data  ) ( + ( str.indexof data " " 0  ) 1  )  )  ) " " 0  ) 1  )  )  ) " " 0  ) 1  ) ( - ( str.len ( str.substr ( str.substr data ( + ( str.indexof data " " 0  ) 1  ) ( - ( str.len data  ) ( + ( str.indexof data " " 0  ) 1  )  )  ) ( + ( str.indexof ( str.substr data ( + ( str.indexof data " " 0  ) 1  ) ( - ( str.len data  ) ( + ( str.indexof data " " 0  ) 1  )  )  ) " " 0  ) 1  ) ( - ( str.len ( str.substr data ( + ( str.indexof data " " 0  ) 1  ) ( - ( str.len data  ) ( + ( str.indexof data " " 0  ) 1  )  )  )  ) ( + ( str.indexof ( str.substr data ( + ( str.indexof data " " 0  ) 1  ) ( - ( str.len data  ) ( + ( str.indexof data " " 0  ) 1  )  )  ) " " 0  ) 1  )  )  )  ) ( + ( str.indexof ( str.substr ( str.substr data ( + ( str.indexof data " " 0  ) 1  ) ( - ( str.len data  ) ( + ( str.indexof data " " 0  ) 1  )  )  ) ( + ( str.indexof ( str.substr data ( + ( str.indexof data " " 0  ) 1  ) ( - ( str.len data  ) ( + ( str.indexof data " " 0  ) 1  )  )  ) " " 0  ) 1  ) ( - ( str.len ( str.substr data ( + ( str.indexof data " " 0  ) 1  ) ( - ( str.len data  ) ( + ( str.indexof data " " 0  ) 1  )  )  )  ) ( + ( str.indexof ( str.substr data ( + ( str.indexof data " " 0  ) 1  ) ( - ( str.len data  ) ( + ( str.indexof data " " 0  ) 1  )  )  ) " " 0  ) 1  )  )  ) " " 0  ) 1  )  )  ) ( + ( str.indexof ( str.substr ( str.substr ( str.substr data ( + ( str.indexof data " " 0  ) 1  ) ( - ( str.len data  ) ( + ( str.indexof data " " 0  ) 1  )  )  ) ( + ( str.indexof ( str.substr data ( + ( str.indexof data " " 0  ) 1  ) ( - ( str.len data  ) ( + ( str.indexof data " " 0  ) 1  )  )  ) " " 0  ) 1  ) ( - ( str.len ( str.substr data ( + ( str.indexof data " " 0  ) 1  ) ( - ( str.len data  ) ( + ( str.indexof data " " 0  ) 1  )  )  )  ) ( + ( str.indexof ( str.substr data ( + ( str.indexof data " " 0  ) 1  ) ( - ( str.len data  ) ( + ( str.indexof data " " 0  ) 1  )  )  ) " " 0  ) 1  )  )  ) ( + ( str.indexof ( str.substr ( str.substr data ( + ( str.indexof data " " 0  ) 1  ) ( - ( str.len data  ) ( + ( str.indexof data " " 0  ) 1  )  )  ) ( + ( str.indexof ( str.substr data ( + ( str.indexof data " " 0  ) 1  ) ( - ( str.len data  ) ( + ( str.indexof data " " 0  ) 1  )  )  ) " " 0  ) 1  ) ( - ( str.len ( str.substr data ( + ( str.indexof data " " 0  ) 1  ) ( - ( str.len data  ) ( + ( str.indexof data " " 0  ) 1  )  )  )  ) ( + ( str.indexof ( str.substr data ( + ( str.indexof data " " 0  ) 1  ) ( - ( str.len data  ) ( + ( str.indexof data " " 0  ) 1  )  )  ) " " 0  ) 1  )  )  ) " " 0  ) 1  ) ( - ( str.len ( str.substr ( str.substr data ( + ( str.indexof data " " 0  ) 1  ) ( - ( str.len data  ) ( + ( str.indexof data " " 0  ) 1  )  )  ) ( + ( str.indexof ( str.substr data ( + ( str.indexof data " " 0  ) 1  ) ( - ( str.len data  ) ( + ( str.indexof data " " 0  ) 1  )  )  ) " " 0  ) 1  ) ( - ( str.len ( str.substr data ( + ( str.indexof data " " 0  ) 1  ) ( - ( str.len data  ) ( + ( str.indexof data " " 0  ) 1  )  )  )  ) ( + ( str.indexof ( str.substr data ( + ( str.indexof data " " 0  ) 1  ) ( - ( str.len data  ) ( + ( str.indexof data " " 0  ) 1  )  )  ) " " 0  ) 1  )  )  )  ) ( + ( str.indexof ( str.substr ( str.substr data ( + ( str.indexof data " " 0  ) 1  ) ( - ( str.len data  ) ( + ( str.indexof data " " 0  ) 1  )  )  ) ( + ( str.indexof ( str.substr data ( + ( str.indexof data " " 0  ) 1  ) ( - ( str.len data  ) ( + ( str.indexof data " " 0  ) 1  )  )  ) " " 0  ) 1  ) ( - ( str.len ( str.substr data ( + ( str.indexof data " " 0  ) 1  ) ( - ( str.len data  ) ( + ( str.indexof data " " 0  ) 1  )  )  )  ) ( + ( str.indexof ( str.substr data ( + ( str.indexof data " " 0  ) 1  ) ( - ( str.len data  ) ( + ( str.indexof data " " 0  ) 1  )  )  ) " " 0  ) 1  )  )  ) " " 0  ) 1  )  )  ) " " 0  ) 1  ) ( - ( str.len ( str.substr ( str.substr ( str.substr data ( + ( str.indexof data " " 0  ) 1  ) ( - ( str.len data  ) ( + ( str.indexof data " " 0  ) 1  )  )  ) ( + ( str.indexof ( str.substr data ( + ( str.indexof data " " 0  ) 1  ) ( - ( str.len data  ) ( + ( str.indexof data " " 0  ) 1  )  )  ) " " 0  ) 1  ) ( - ( str.len ( str.substr data ( + ( str.indexof data " " 0  ) 1  ) ( - ( str.len data  ) ( + ( str.indexof data " " 0  ) 1  )  )  )  ) ( + ( str.indexof ( str.substr data ( + ( str.indexof data " " 0  ) 1  ) ( - ( str.len data  ) ( + ( str.indexof data " " 0  ) 1  )  )  ) " " 0  ) 1  )  )  ) ( + ( str.indexof ( str.substr ( str.substr data ( + ( str.indexof data " " 0  ) 1  ) ( - ( str.len data  ) ( + ( str.indexof data " " 0  ) 1  )  )  ) ( + ( str.indexof ( str.substr data ( + ( str.indexof data " " 0  ) 1  ) ( - ( str.len data  ) ( + ( str.indexof data " " 0  ) 1  )  )  ) " " 0  ) 1  ) ( - ( str.len ( str.substr data ( + ( str.indexof data " " 0  ) 1  ) ( - ( str.len data  ) ( + ( str.indexof data " " 0  ) 1  )  )  )  ) ( + ( str.indexof ( str.substr data ( + ( str.indexof data " " 0  ) 1  ) ( - ( str.len data  ) ( + ( str.indexof data " " 0  ) 1  )  )  ) " " 0  ) 1  )  )  ) " " 0  ) 1  ) ( - ( str.len ( str.substr ( str.substr data ( + ( str.indexof data " " 0  ) 1  ) ( - ( str.len data  ) ( + ( str.indexof data " " 0  ) 1  )  )  ) ( + ( str.indexof ( str.substr data ( + ( str.indexof data " " 0  ) 1  ) ( - ( str.len data  ) ( + ( str.indexof data " " 0  ) 1  )  )  ) " " 0  ) 1  ) ( - ( str.len ( str.substr data ( + ( str.indexof data " " 0  ) 1  ) ( - ( str.len data  ) ( + ( str.indexof data " " 0  ) 1  )  )  )  ) ( + ( str.indexof ( str.substr data ( + ( str.indexof data " " 0  ) 1  ) ( - ( str.len data  ) ( + ( str.indexof data " " 0  ) 1  )  )  ) " " 0  ) 1  )  )  )  ) ( + ( str.indexof ( str.substr ( str.substr data ( + ( str.indexof data " " 0  ) 1  ) ( - ( str.len data  ) ( + ( str.indexof data " " 0  ) 1  )  )  ) ( + ( str.indexof ( str.substr data ( + ( str.indexof data " " 0  ) 1  ) ( - ( str.len data  ) ( + ( str.indexof data " " 0  ) 1  )  )  ) " " 0  ) 1  ) ( - ( str.len ( str.substr data ( + ( str.indexof data " " 0  ) 1  ) ( - ( str.len data  ) ( + ( str.indexof data " " 0  ) 1  )  )  )  ) ( + ( str.indexof ( str.substr data ( + ( str.indexof data " " 0  ) 1  ) ( - ( str.len data  ) ( + ( str.indexof data " " 0  ) 1  )  )  ) " " 0  ) 1  )  )  ) " " 0  ) 1  )  )  )  ) ( + ( str.indexof ( str.substr ( str.substr ( str.substr data ( + ( str.indexof data " " 0  ) 1  ) ( - ( str.len data  ) ( + ( str.indexof data " " 0  ) 1  )  )  ) ( + ( str.indexof ( str.substr data ( + ( str.indexof data " " 0  ) 1  ) ( - ( str.len data  ) ( + ( str.indexof data " " 0  ) 1  )  )  ) " " 0  ) 1  ) ( - ( str.len ( str.substr data ( + ( str.indexof data " " 0  ) 1  ) ( - ( str.len data  ) ( + ( str.indexof data " " 0  ) 1  )  )  )  ) ( + ( str.indexof ( str.substr data ( + ( str.indexof data " " 0  ) 1  ) ( - ( str.len data  ) ( + ( str.indexof data " " 0  ) 1  )  )  ) " " 0  ) 1  )  )  ) ( + ( str.indexof ( str.substr ( str.substr data ( + ( str.indexof data " " 0  ) 1  ) ( - ( str.len data  ) ( + ( str.indexof data " " 0  ) 1  )  )  ) ( + ( str.indexof ( str.substr data ( + ( str.indexof data " " 0  ) 1  ) ( - ( str.len data  ) ( + ( str.indexof data " " 0  ) 1  )  )  ) " " 0  ) 1  ) ( - ( str.len ( str.substr data ( + ( str.indexof data " " 0  ) 1  ) ( - ( str.len data  ) ( + ( str.indexof data " " 0  ) 1  )  )  )  ) ( + ( str.indexof ( str.substr data ( + ( str.indexof data " " 0  ) 1  ) ( - ( str.len data  ) ( + ( str.indexof data " " 0  ) 1  )  )  ) " " 0  ) 1  )  )  ) " " 0  ) 1  ) ( - ( str.len ( str.substr ( str.substr data ( + ( str.indexof data " " 0  ) 1  ) ( - ( str.len data  ) ( + ( str.indexof data " " 0  ) 1  )  )  ) ( + ( str.indexof ( str.substr data ( + ( str.indexof data " " 0  ) 1  ) ( - ( str.len data  ) ( + ( str.indexof data " " 0  ) 1  )  )  ) " " 0  ) 1  ) ( - ( str.len ( str.substr data ( + ( str.indexof data " " 0  ) 1  ) ( - ( str.len data  ) ( + ( str.indexof data " " 0  ) 1  )  )  )  ) ( + ( str.indexof ( str.substr data ( + ( str.indexof data " " 0  ) 1  ) ( - ( str.len data  ) ( + ( str.indexof data " " 0  ) 1  )  )  ) " " 0  ) 1  )  )  )  ) ( + ( str.indexof ( str.substr ( str.substr data ( + ( str.indexof data " " 0  ) 1  ) ( - ( str.len data  ) ( + ( str.indexof data " " 0  ) 1  )  )  ) ( + ( str.indexof ( str.substr data ( + ( str.indexof data " " 0  ) 1  ) ( - ( str.len data  ) ( + ( str.indexof data " " 0  ) 1  )  )  ) " " 0  ) 1  ) ( - ( str.len ( str.substr data ( + ( str.indexof data " " 0  ) 1  ) ( - ( str.len data  ) ( + ( str.indexof data " " 0  ) 1  )  )  )  ) ( + ( str.indexof ( str.substr data ( + ( str.indexof data " " 0  ) 1  ) ( - ( str.len data  ) ( + ( str.indexof data " " 0  ) 1  )  )  ) " " 0  ) 1  )  )  ) " " 0  ) 1  )  )  ) " " 0  ) 1  )  )  ) "+" 0  ) (- 1)  ))

(assert ( = 4 4  ))

(assert (not ( = 4 3  )))

(assert ( str.suffixof "," ( str.substr data 0 ( - ( str.indexof data " " 0  ) 0  )  )  ))

(assert (not ( = ( str.len data  ) 0  )))
(assert (not ( not ( or ( or ( or ( or ( or ( or ( or ( or ( or ( or ( or ( or ( or ( or ( or ( or ( or ( or ( or ( or ( or ( or ( or ( = "jan" "i="  ) ( = "feb" "i="  )  ) ( = "mar" "i="  )  ) ( = "apr" "i="  )  ) ( = "may" "i="  )  ) ( = "jun" "i="  )  ) ( = "jul" "i="  )  ) ( = "aug" "i="  )  ) ( = "sep" "i="  )  ) ( = "oct" "i="  )  ) ( = "nov" "i="  )  ) ( = "dec" "i="  )  ) ( = "january" "i="  )  ) ( = "february" "i="  )  ) ( = "march" "i="  )  ) ( = "april" "i="  )  ) ( = "may" "i="  )  ) ( = "june" "i="  )  ) ( = "july" "i="  )  ) ( = "august" "i="  )  ) ( = "september" "i="  )  ) ( = "october" "i="  )  ) ( = "november" "i="  )  ) ( = "december" "i="  )  )  )))


(check-sat)

(exit)
